# REAX potential for CHO system
# .....
units		real

atom_style	charge
atom_modify     map yes

read_data       run.data

pair_style	reaxff/kk lmp_control
pair_coeff	* * ffield.reax.mattsson C H

neighbor	2 bin

velocity        all create 600.0 15345 mom no rot no dist gaussian

fix		1 all nve
fix             2 all qeq/reaxff/kk 10 0.0 10.0 1e-6 reaxff
fix		3 all langevin 600.0 600.0 100.0 48279

timestep	0.2
